GLPSOL: GLPK LP/MIP Solver, v4.55
Parameter(s) specified in the command line:
 -m tmp.mod
Reading model section from tmp.mod...
Reading data section from tmp.mod...
10184 lines were read
Generating obj...
Generating kirhoff...
Generating init_charge...
Generating batt_size...
Model has been successfully generated
GLPK Simplex Optimizer, v4.55
10514 rows, 19511 columns, 41576 non-zeros
Preprocessing...
8881 rows, 19214 columns, 41045 non-zeros
Scaling...
 A: min|aij| =  1.000e+00  max|aij| =  1.000e+00  ratio =  1.000e+00
Problem data seem to be well scaled
Constructing initial basis...
Size of triangular part is 7758
      0: obj =   0.000000000e+00  infeas =  7.229e+03 (1123)
    500: obj =   0.000000000e+00  infeas =  6.268e+03 (996)
   1000: obj =   0.000000000e+00  infeas =  4.925e+03 (841)
   1500: obj =   7.400000000e+01  infeas =  3.947e+03 (772)
   2000: obj =   2.530000000e+02  infeas =  2.249e+03 (679)
   2500: obj =   3.700000000e+02  infeas =  1.936e+03 (663)
   3000: obj =   5.870000000e+02  infeas =  5.265e+02 (604)
*  3488: obj =   8.144000000e+02  infeas =  4.339e-30 (566)
*  3500: obj =   8.094000000e+02  infeas =  8.882e-16 (566)
*  4000: obj =   5.540000000e+02  infeas =  0.000e+00 (539)
*  4500: obj =   3.620000000e+02  infeas =  5.178e-15 (525)
*  5000: obj =   2.500000000e+02  infeas =  0.000e+00 (506)
*  5006: obj =   2.480000000e+02  infeas =  0.000e+00 (506)
OPTIMAL LP SOLUTION FOUND
Time used:   3.6 secs
Memory used: 36.9 Mb (38669969 bytes)
#OUTPUT:
248
-83 -93 -38 -70 0 -13 0 -32 -10 8 0 0 0 -7 17 -35 0 2 -30 -4 0 0 0 0 0 -4 -7 0 0 0 5 0 -2 0 0 0 0 0 -7 0 -9 -6 -7 -2 -72 0 10 0 0 0 0 -19 0 0 0 -16 -7 10 -1 0 -6 2 0 0 0 -90 0 0 -30 0 0 0 0 0 6 -2 0 -6 0 0 0 0 0 0 0 -7 0 0 0 -19 4 0 0 0 0 0 0 2 0 0 0 0 0 0 0 0 -8 0 9 0 0 -1 0 -11 0 -9 0 1 0 0 -4 -23 0 0 -5 0 0 0 0 0 0 -1 0 0 0 0 0 0 0 9 -14 2 0 0 0 0 0 0 0 9 0 0 0 0 0 0 9 0 0 0 -9 0 -2 0 0 0 0 -47 0 0 0 0 0 0 0 0 -2 0 0 0 0 0 0 0 0 0 0 0 0 0 0 -25 -9 0 0 -5 11 0 0 0 6 0 0 0 0 0 -5 0 0 0 -7 0 0 0 2 0 0 6 0 0 0 0 0 0 0 -2 0 -16 0 0 0 -30 0 4 0 0 0 0 6 0 6 -16 0 0 -9 1 0 0 0 -4 0 0 -9 0 0 0 0 0 0 0 0 -79 0 1 0 0 0 0 0 0 0 0 0 0 0 0 0 0 0 0 0 0 0 0 0 0 0 0 32 0 0 -5 0 0 0 0 0 0 -79 4 21 0 0 0 0 -1 0 0 0 0 0 0 0 0 0 0 -1 0 0 0 2 0 0 0 0 0 0 23 0 0 0 0 0 0 -63 0 2 0 0 0 0 0 0 0 0 0 0 0 0 0 0 0 0 0 0 0 0 0 0 0 0 0 -25 0 0 -9 30 0 0 0 0 0 0 0 0 0 0 0 0 0 0 0 0 0 0 59 0 -1 0 -9 0 -9 0 0 0 0 0 0 0 0 0 0 0 0 0 0 0 0 -4 0 0 0 0 0 0 0 0 0 0 0 0 0 0 0 0 0 0 0 0 0 0 0 -9 -41 0 -4 0 -2 -5 0 0 -9 0 5 -6 0 0 0 5 -2 2 0 9 0 0 0 2 0 0 0 0 9 0 -11 -6 -2 0 0 -6 0 0 0 2 0 0 0 0 -1 0 0 0 0 0 0 0 57 0 0 0 0 -16 0 -9 0 4 0 0 0 0 0 0 -23 0 6 57 -2 0 0 0 0 25 0 -30 0 0 0 0 0 0 0 0 0 0 0 -59 1 0 9 0 0 9 0 0 0 0 0 0 0 0 0 4 0 0 0 0 0 0 5 -5 0 -35 10 25 0 0 0 9 0 0 0 0 0 0 0 0 0 0 0 0 0 0 0 0 0 0 0 0 0 0 0 0 0 0 0 0 0 0 0 0 0 0 0 
-2 -3 -56 0 2 0 0 -21 -17 0 0 2 0 -36 17 -2 0 0 0 -4 0 0 3 0 0 -4 0 0 0 0 0 -3 0 0 0 0 0 0 -7 -3 0 0 -7 0 0 0 0 0 -1 0 3 -17 0 0 0 -17 -33 -10 0 -2 -3 0 0 -2 0 0 0 0 0 0 0 0 3 0 0 0 0 -6 0 0 0 0 0 0 0 -31 0 0 0 -7 0 0 0 0 0 0 0 0 0 -10 0 0 0 0 0 0 -2 0 0 0 0 0 0 0 0 0 0 0 0 0 0 0 0 0 0 0 -3 0 0 0 0 0 0 0 -1 0 0 0 0 9 0 0 0 0 3 -7 0 0 0 0 0 0 0 0 0 1 0 0 0 7 -9 0 0 0 0 0 0 0 0 0 0 0 0 0 0 0 0 0 0 0 3 0 0 0 0 0 0 0 0 0 0 -13 0 0 0 0 0 0 0 0 6 0 0 0 0 0 0 0 0 0 -31 0 0 0 0 0 0 0 0 0 -3 0 0 0 0 -1 0 0 0 0 0 0 0 0 0 0 0 0 3 0 3 0 0 0 0 0 0 0 0 0 0 0 0 0 0 0 0 0 0 0 0 0 0 0 0 0 0 0 0 0 0 0 0 0 0 0 0 0 0 0 0 0 0 0 0 0 0 0 0 0 0 0 0 0 0 0 0 0 0 0 0 0 0 0 0 0 0 0 0 0 0 0 0 -7 0 0 0 0 0 0 0 0 0 0 0 0 0 0 0 0 0 0 0 0 -3 0 0 0 0 0 0 0 0 0 0 0 0 0 0 0 0 0 0 0 0 0 0 -7 0 0 0 0 0 0 0 0 0 0 0 0 0 0 0 0 0 0 0 0 0 0 0 0 0 0 0 0 0 0 0 0 0 0 0 0 0 0 0 0 0 0 0 0 0 0 0 0 0 0 0 0 0 0 0 0 0 0 0 0 0 0 0 0 0 0 0 0 0 0 0 -7 0 0 0 -26 4 0 0 0 0 1 0 0 0 0 0 3 0 0 0 0 0 -7 9 0 0 0 0 0 0 0 0 0 0 0 -6 0 0 0 0 3 0 0 1 0 0 0 0 0 0 0 0 0 0 0 0 0 0 0 0 0 0 0 0 0 0 0 0 0 0 0 0 0 0 3 0 0 0 0 0 0 0 0 0 0 0 0 0 0 0 0 0 0 0 0 0 0 0 0 0 0 0 0 0 0 0 0 0 0 0 0 0 0 0 0 0 0 0 0 0 0 0 0 0 0 7 0 0 0 0 0 0 0 0 0 0 0 0 0 0 0 0 0 0 0 0 0 0 0 0 0 0 0 0 0 0 0 0 0 0 0 0 0 
-6 -6 -14 -61 0 0 0 0 -5 -7 0 0 0 0 2 -6 3 0 0 0 -2 0 0 0 0 0 7 0 0 0 0 0 0 0 0 0 0 0 0 0 0 6 0 0 0 0 0 -3 -12 0 0 0 -1 0 0 0 0 0 0 0 0 0 0 -5 7 0 0 0 0 -3 0 0 -1 0 -5 0 0 -6 0 0 0 0 -2 0 0 0 0 0 0 -5 1 0 0 0 0 -7 0 0 0 0 -3 0 -20 0 0 0 0 0 0 0 0 0 0 0 0 0 0 -2 0 0 0 0 0 0 0 0 1 0 0 0 0 0 0 0 0 0 0 7 0 0 0 0 0 -5 0 -7 0 0 0 0 0 0 0 0 0 0 0 0 0 7 2 0 0 0 0 0 0 0 0 0 0 0 0 0 0 0 0 0 0 0 0 0 0 0 0 0 1 0 -2 0 0 -11 0 1 0 0 0 0 0 0 6 0 0 0 0 0 0 0 0 0 0 0 0 0 0 5 0 -1 0 0 0 0 0 0 0 0 0 0 0 0 0 0 0 0 0 -1 0 0 0 0 0 0 0 0 0 0 0 0 0 0 0 0 0 0 0 0 0 0 0 0 0 0 0 -5 0 0 0 0 0 0 0 -1 0 0 0 0 0 0 0 0 0 0 0 0 0 0 0 0 0 0 0 0 0 0 0 0 0 0 0 0 0 0 0 0 0 0 3 0 0 0 0 0 0 -7 0 0 0 0 0 0 0 0 0 0 0 0 0 0 0 0 0 0 0 0 -6 0 0 0 0 1 0 0 0 0 0 5 2 -6 0 0 0 0 0 0 0 0 0 -7 0 0 0 0 0 0 0 0 0 0 0 0 0 0 0 0 0 0 0 0 0 0 0 -1 0 0 0 0 0 0 0 0 2 0 0 0 0 3 0 0 0 0 0 0 0 0 0 0 0 0 0 0 0 0 3 0 0 0 0 0 0 0 0 0 0 -2 0 0 0 0 0 -7 0 0 0 0 0 0 0 0 6 0 0 0 0 0 2 -1 0 0 0 0 0 -7 0 0 0 0 0 0 0 0 0 0 0 0 -6 0 -5 0 0 0 0 0 0 0 7 0 0 0 0 0 0 0 0 1 1 0 0 0 0 0 0 0 0 0 0 0 0 0 0 0 0 0 0 6 0 0 0 -5 6 0 0 0 0 0 0 0 0 0 0 0 0 1 0 0 0 0 0 0 -2 0 0 0 0 -3 0 0 0 0 0 0 0 0 -3 0 0 0 0 -4 6 0 0 0 0 0 7 0 0 0 0 0 0 0 0 0 0 0 0 0 0 0 0 0 0 0 0 0 0 0 0 0 0 0 0 0 0 0 0 0 0 0 0 0 
-22 -59 -26 -71 -6 -3 -2 -3 -19 0 0 -1 0 -11 17 -17 0 -52 -53 0 -1 -54 0 0 0 0 0 0 0 0 0 0 0 0 0 0 0 0 -7 0 0 0 -7 0 0 0 0 0 0 0 0 0 -2 0 0 0 -11 0 0 8 -9 -1 0 8 0 0 0 0 -53 0 0 0 0 0 0 0 -19 -3 0 0 0 0 -1 0 0 0 0 -3 0 -19 0 0 3 0 0 0 0 0 2 0 0 0 0 0 0 0 8 0 0 0 0 0 0 -3 -5 0 -5 -6 0 0 0 -23 0 0 0 0 0 0 0 0 0 2 0 0 0 0 0 0 0 9 0 0 0 0 0 -7 0 0 0 -19 0 0 0 0 0 0 -19 0 0 7 -9 0 0 0 0 0 0 -32 0 0 0 0 0 0 0 0 0 0 -46 0 0 0 0 0 0 0 0 0 0 0 0 -25 0 0 0 0 0 0 -3 0 6 -59 0 -1 0 0 0 0 0 0 -2 0 0 0 0 0 0 0 0 0 0 0 0 0 0 0 0 0 0 0 0 -30 0 0 0 -2 -74 0 6 0 6 0 0 -54 0 0 0 0 0 0 0 0 0 0 0 0 0 0 0 0 0 0 0 0 0 0 0 0 0 0 0 0 0 0 0 0 0 0 0 0 0 0 -3 0 0 0 0 0 -32 0 0 0 0 0 0 0 0 0 0 0 0 0 4 0 0 -2 0 -70 0 0 0 0 0 -7 0 0 -2 0 0 0 2 0 0 0 0 0 0 23 0 0 0 0 0 0 -6 0 2 0 0 0 0 0 0 0 0 -2 0 0 0 0 0 0 0 0 0 0 -70 -7 0 0 0 0 0 0 0 -9 30 0 0 0 0 0 0 4 0 0 0 0 0 0 0 0 0 0 0 0 0 2 0 0 0 19 0 0 0 0 0 0 0 0 -3 0 0 -3 0 0 0 0 0 0 0 0 0 0 0 0 0 0 0 0 -64 0 4 0 0 0 2 0 -3 -7 0 0 0 -26 0 0 0 0 -2 0 0 0 0 0 6 0 0 0 0 0 0 -7 9 0 0 0 0 0 0 0 0 0 3 -3 -6 0 0 0 0 0 0 0 0 0 0 0 54 0 0 0 0 0 0 0 0 0 0 0 0 0 0 0 0 0 0 -19 19 4 0 0 0 -23 0 6 0 -2 0 2 0 0 0 0 -30 0 0 0 0 0 0 0 0 0 0 0 0 -2 0 0 0 0 -19 0 0 0 0 0 -1 0 0 0 0 0 0 0 0 0 -4 0 0 0 -2 0 0 3 7 0 0 0 0 0 0 0 0 0 0 0 0 0 0 0 0 0 0 0 0 0 0 0 0 0 0 0 0 0 0 0 0 0 0 0 0 0 
-5 0 -14 0 -10 0 -1 0 1 0 0 -9 0 -4 0 -5 0 0 0 0 0 0 0 0 0 0 -13 0 0 0 0 0 0 0 0 0 0 0 -13 0 0 -2 -13 4 0 0 0 0 0 0 0 0 0 0 0 0 0 10 0 -2 0 0 0 -2 0 0 0 0 0 0 0 0 0 -4 0 0 0 0 0 0 0 0 0 0 0 2 0 0 0 0 0 0 0 0 0 0 0 1 2 10 0 0 0 89 0 0 -3 0 0 0 0 0 0 0 0 0 0 0 0 0 0 0 0 0 0 0 0 85 0 0 0 0 0 0 0 0 0 0 0 0 0 -4 0 0 0 0 0 4 0 0 0 -93 0 0 0 4 0 0 0 85 0 0 0 0 0 0 0 0 0 0 0 0 0 0 0 0 0 0 0 0 0 0 0 0 0 0 0 0 0 0 0 0 0 0 0 0 0 0 0 0 0 0 0 0 0 0 0 0 0 0 0 0 0 0 0 0 0 0 0 0 0 0 0 0 0 -9 0 0 0 0 0 0 0 0 0 0 0 0 0 0 0 0 0 0 0 0 0 0 0 0 0 0 0 0 0 0 0 0 0 0 0 0 -4 0 0 0 0 0 0 0 0 0 0 0 0 0 0 0 0 0 0 0 0 0 0 0 0 0 0 0 0 5 0 0 0 0 0 0 0 0 0 0 0 0 0 0 0 0 0 0 4 0 0 0 0 0 0 0 0 0 0 0 0 0 0 0 0 0 0 0 0 0 0 0 0 0 0 0 0 0 0 0 0 0 4 0 0 0 0 0 0 0 0 0 0 0 0 0 0 4 0 0 0 0 0 0 0 0 0 0 0 0 0 0 0 0 0 0 0 0 0 0 0 0 0 0 0 0 0 0 0 0 0 0 0 0 0 0 0 0 0 0 0 0 0 -4 0 0 0 0 0 0 0 0 0 0 0 0 0 0 0 0 0 0 0 0 0 0 0 0 0 0 0 0 0 0 0 -1 -2 0 0 0 0 0 0 0 0 0 0 4 5 -85 0 0 0 0 0 0 0 0 0 0 0 0 0 0 0 0 0 0 0 0 9 0 0 0 0 0 0 0 0 0 0 0 0 0 0 0 0 0 -5 0 0 0 0 0 0 0 0 0 0 0 0 0 0 0 0 0 0 0 0 0 0 0 0 0 0 0 0 0 0 0 -4 4 0 0 0 0 0 0 0 0 0 0 0 0 0 4 0 0 0 0 0 0 0 0 0 0 0 0 0 0 0 0 0 0 0 0 0 0 0 0 0 0 0 0 0 0 0 0 0 0 0 0 0 0 0 0 0 0 0 0 0 0 0 0 0 0 0 0 0 0 
-32 -41 -9 0 0 -12 -1 -9 0 40 0 0 0 0 -1 0 0 19 -36 0 -5 0 0 0 6 0 -35 -36 0 0 0 0 42 0 19 0 0 0 -42 19 -9 0 -42 0 -19 0 0 0 0 0 0 0 0 0 0 0 0 -10 5 0 0 0 0 0 0 0 0 0 0 0 0 0 0 0 -5 0 0 0 0 0 0 -2 -5 0 0 0 0 0 0 0 -1 0 0 0 6 0 0 0 0 -10 0 0 0 0 0 0 5 0 0 0 0 5 0 0 0 0 0 0 -72 -2 0 0 0 0 0 0 0 0 0 0 0 -1 0 0 0 0 0 0 0 2 9 0 0 1 0 -7 0 0 0 0 0 0 0 0 0 0 0 0 0 7 9 0 0 0 0 0 -2 0 0 0 0 1 0 0 0 0 0 0 0 0 0 0 0 0 0 0 -6 0 -1 0 0 0 0 0 0 0 0 0 0 0 0 0 0 1 4 0 0 0 0 0 0 0 0 0 0 0 0 0 0 0 0 0 0 0 0 0 0 0 0 0 -1 0 -72 0 0 0 0 0 0 0 0 0 -11 0 0 -5 0 0 0 0 0 -2 0 0 -23 0 0 0 0 0 0 0 0 0 0 0 0 0 0 0 0 0 0 0 0 0 0 0 8 0 0 0 0 5 0 0 0 4 0 0 0 0 0 0 0 0 0 0 0 0 0 0 0 0 0 0 0 0 0 0 0 0 0 -7 0 0 0 0 0 0 0 0 0 0 0 0 0 0 0 0 0 0 0 0 0 0 0 0 0 0 0 0 0 0 0 0 0 0 0 0 0 0 0 0 0 0 0 -7 0 0 0 -28 0 0 0 0 0 0 0 0 0 0 0 0 -28 0 4 0 0 0 0 0 0 0 0 0 0 0 -1 0 0 0 0 0 0 0 0 0 0 0 0 0 0 0 0 0 0 0 0 0 0 0 0 0 0 0 0 0 0 0 0 0 0 -1 0 0 19 0 0 -7 0 0 19 -48 0 1 0 0 1 0 0 8 0 0 0 0 0 0 -5 0 0 -7 2 2 0 0 0 0 0 0 6 0 0 0 0 0 0 0 0 0 0 8 0 1 0 11 0 5 0 0 3 0 23 0 0 -12 -5 0 0 0 0 0 0 0 0 0 0 0 0 0 0 0 0 0 0 0 0 0 0 0 0 0 0 0 0 0 0 -72 0 -4 0 0 0 0 0 0 0 0 0 0 0 0 0 0 0 0 1 0 0 -5 5 0 0 0 0 -1 1 0 1 0 -19 0 0 0 7 0 -19 0 0 0 0 0 0 0 0 0 0 0 0 0 0 0 0 0 0 0 0 0 0 0 0 0 0 0 0 0 0 0 0 0 0 0 
-83 0 -26 -17 -10 0 8 -2 2 47 0 -9 0 0 17 -48 0 -17 0 0 0 0 0 0 -3 0 -35 0 -3 0 -36 -1 0 0 0 0 0 0 -34 0 0 0 -34 0 0 0 47 -3 0 -3 0 0 -6 0 0 0 1 -10 0 1 0 1 0 1 0 0 0 1 0 -3 0 -25 1 0 1 0 0 0 0 0 0 0 0 0 0 0 0 0 0 0 0 0 0 -2 0 0 0 0 0 -38 -3 -4 0 0 0 0 0 -2 0 0 0 0 0 0 0 0 0 -14 0 0 -4 0 0 0 0 0 -1 0 0 0 0 0 0 0 1 0 0 0 0 9 0 0 0 0 0 1 0 -5 0 0 0 0 0 0 0 14 0 0 0 -1 -9 0 -1 0 0 0 0 0 0 0 0 0 0 0 0 0 0 0 0 0 0 0 0 0 0 0 0 0 0 0 0 0 1 0 0 0 3 0 0 0 0 0 0 0 0 0 0 0 0 0 0 0 0 0 0 0 0 8 0 0 0 2 0 0 0 -9 0 -60 0 0 0 0 0 4 0 0 0 0 0 0 0 -60 0 0 0 -2 0 0 0 -4 0 0 0 0 0 0 0 0 0 0 0 0 0 0 0 0 0 0 0 0 0 0 -1 0 0 0 -12 0 0 0 0 0 0 0 0 0 0 0 0 0 0 5 0 0 0 0 0 1 0 4 23 0 0 0 0 0 0 0 0 0 0 0 0 1 0 0 0 0 0 1 0 0 0 0 0 0 0 0 0 0 0 -81 0 0 0 0 0 0 0 0 0 0 0 0 0 0 0 0 0 0 0 0 0 0 0 0 0 1 0 0 0 0 -25 0 0 0 0 0 0 0 0 0 0 0 0 0 0 0 0 0 0 0 0 0 0 0 0 0 0 0 0 0 0 0 0 3 0 0 0 0 0 0 0 0 -81 0 0 0 0 0 0 0 0 0 0 0 0 0 0 0 0 0 0 0 0 0 -12 0 0 1 0 0 0 -26 -36 0 0 0 0 23 2 0 0 0 2 1 0 0 1 0 -5 1 9 0 0 0 0 0 0 0 0 0 -3 0 0 0 0 0 -8 0 0 0 9 0 0 0 0 0 2 0 0 0 0 0 16 0 0 0 0 0 -5 -1 0 -2 2 0 0 0 0 -1 0 0 0 0 0 0 0 0 0 0 25 0 0 0 0 0 0 0 0 0 0 0 5 -5 0 0 0 0 12 -12 0 0 0 -3 0 0 0 0 0 0 0 0 0 0 0 0 0 0 0 0 -35 47 0 0 -1 0 0 0 0 0 0 0 0 0 0 0 0 0 0 0 0 0 0 0 0 0 0 0 0 0 0 0 0 0 0 0 0 0 0 0 0 0 
-12 -53 -35 0 -10 0 -10 -2 -10 0 0 0 0 -23 0 -5 0 0 -53 0 0 0 0 0 0 0 0 0 0 0 0 0 0 0 0 0 0 0 0 0 0 0 0 0 0 0 6 0 0 0 0 0 0 0 0 0 -23 -10 0 -2 0 0 0 -2 0 0 0 0 -53 0 0 -11 0 0 0 0 0 0 0 0 0 0 0 0 0 -2 0 0 0 0 0 0 0 0 0 -6 0 0 -2 -10 0 2 0 0 0 0 -2 -2 0 0 0 0 0 0 0 0 0 0 0 0 0 0 0 0 0 0 0 0 0 8 0 -2 0 0 0 0 0 0 0 0 0 0 0 -6 0 0 0 0 0 0 0 0 0 0 0 0 0 0 0 0 0 0 -2 0 0 0 0 0 0 0 0 1 0 0 0 0 0 0 0 0 0 0 0 0 0 0 0 0 0 0 0 0 0 0 0 0 1 0 0 0 0 0 0 0 0 0 0 0 0 0 0 0 0 0 2 0 0 0 0 0 0 0 0 0 0 0 0 -11 0 0 -1 -82 0 0 0 -2 0 0 0 0 0 -11 0 0 0 0 0 0 8 0 0 0 0 0 0 0 0 0 0 0 0 0 0 0 0 0 0 0 0 0 0 0 0 0 0 0 0 0 0 0 0 0 0 0 0 0 0 0 0 0 0 5 0 0 0 0 0 0 0 0 11 0 -1 0 0 -1 0 0 0 0 0 0 0 0 0 0 -1 0 0 0 2 0 0 0 7 0 0 0 0 0 0 0 0 0 0 0 2 0 0 0 0 0 0 0 0 -2 0 0 0 0 0 0 0 0 0 0 0 0 0 0 0 0 -11 1 0 0 -2 0 0 0 0 0 0 -1 0 0 0 0 0 0 0 0 0 8 0 0 0 2 0 0 0 0 0 0 0 0 0 0 0 0 0 0 0 0 0 0 0 0 0 0 0 0 0 0 0 0 0 0 0 0 0 0 0 0 0 0 0 0 0 0 0 0 0 0 0 0 0 0 2 -10 2 0 0 0 0 0 0 0 0 0 0 0 0 0 0 0 0 0 0 0 0 0 0 0 0 -2 -7 0 0 0 0 0 0 1 0 0 0 0 0 0 0 0 0 0 0 0 0 0 0 0 -5 0 0 0 0 -19 19 3 0 0 -7 0 0 0 0 -2 0 2 0 0 11 0 2 0 0 0 1 0 0 0 0 0 -8 0 0 -2 0 0 0 0 0 0 0 0 0 0 0 0 0 0 0 0 0 0 0 0 0 0 0 0 -6 6 0 0 0 0 0 0 0 0 0 0 0 0 0 0 0 0 0 0 0 0 0 0 0 0 0 0 0 0 0 0 0 0 0 0 0 0 0 0 0 0 
-46 -4 -10 -52 -10 -11 0 0 -17 0 0 -9 0 0 17 0 0 0 -4 0 0 0 0 0 -1 0 0 0 -1 0 0 0 0 0 0 0 -52 0 0 0 0 0 0 0 0 0 0 0 0 0 0 0 0 2 0 0 0 -7 0 0 0 0 0 -2 0 0 0 0 -4 0 0 -29 0 0 0 0 0 0 0 0 0 0 0 0 0 0 0 0 0 -8 0 0 0 0 0 0 0 -2 0 -7 0 0 0 0 0 0 0 0 0 0 0 0 0 -11 0 0 0 0 0 0 0 0 0 0 0 0 0 0 0 0 0 0 0 0 -1 0 0 0 0 0 0 0 0 -2 0 0 0 0 0 0 0 0 0 0 0 4 0 0 0 0 0 0 0 0 0 0 0 0 0 0 0 0 0 0 0 0 0 0 0 0 0 0 0 0 0 -52 0 0 0 0 0 -8 0 0 0 0 12 0 0 0 0 0 0 0 0 0 0 0 0 0 0 0 0 0 0 2 4 0 0 0 0 0 0 0 0 -9 0 0 0 0 0 0 0 0 0 0 0 0 0 0 0 0 0 0 0 0 -2 0 0 0 0 0 0 0 0 0 0 0 0 0 0 0 0 4 0 0 0 0 0 0 0 0 0 0 0 0 0 0 0 0 0 0 0 -2 0 0 0 0 0 0 0 0 0 0 0 0 0 0 0 0 0 0 0 0 0 0 0 0 0 0 0 0 0 0 0 0 0 0 0 0 0 0 0 0 0 0 0 0 0 0 0 0 0 0 0 0 0 0 0 0 0 0 0 0 0 0 0 0 0 0 0 0 0 0 0 0 0 0 0 0 0 0 0 0 0 0 0 0 0 0 0 0 0 0 0 0 0 0 0 0 0 0 0 0 0 0 0 -4 0 0 0 0 0 0 0 0 0 0 0 0 0 0 0 0 0 0 0 0 0 0 0 0 0 0 0 0 0 0 0 0 0 0 0 0 0 0 64 0 0 0 0 0 0 -17 0 0 0 6 0 4 0 0 0 0 0 0 0 0 0 0 5 0 0 0 0 0 0 0 0 0 0 0 -1 -11 0 0 -2 -4 0 0 0 0 9 0 0 0 0 0 0 2 0 0 0 0 0 0 2 0 0 0 0 0 0 0 0 0 0 -4 0 0 0 0 0 0 0 0 0 0 0 0 0 0 0 0 0 0 0 0 0 0 0 0 0 0 0 4 0 0 0 0 0 0 0 0 0 0 0 0 0 0 0 0 0 0 0 0 0 0 0 0 -35 0 -29 0 0 0 0 0 0 0 0 0 0 0 0 0 0 0 0 0 0 0 0 0 0 0 0 0 0 0 0 0 0 0 0 0 0 0 0 0 0 0 
0 -19 3 0 5 0 3 8 -12 -11 0 2 0 -9 17 -3 0 0 -19 7 0 0 0 0 0 4 0 -10 0 0 2 0 0 0 0 0 0 0 0 0 0 -2 0 -1 0 0 -11 0 -1 -3 0 4 0 0 0 6 -9 0 -32 15 0 2 0 8 0 0 2 0 -9 0 0 0 0 0 6 2 0 0 0 0 2 0 0 0 0 -29 0 0 0 0 0 0 0 0 0 0 0 2 2 0 0 0 0 0 0 0 0 -3 0 0 0 -32 0 0 0 -3 0 0 0 0 0 0 0 0 0 0 0 0 0 0 0 0 0 0 0 0 0 0 0 0 0 0 0 0 0 0 0 0 0 0 0 0 0 0 0 0 0 0 0 0 9 0 -1 0 0 0 0 0 0 0 -8 0 0 3 0 0 2 0 0 0 0 0 0 -8 0 0 0 0 0 0 0 0 0 0 0 0 0 0 0 0 0 0 0 0 0 0 0 0 0 0 -31 0 0 0 2 7 -6 0 -3 0 0 -5 0 0 0 0 0 2 3 0 0 -2 0 0 0 0 0 0 0 0 0 2 -10 0 0 0 0 0 0 0 0 0 0 0 0 0 0 0 0 0 0 0 0 0 0 0 0 -41 0 0 0 0 1 0 0 0 0 0 0 0 -3 0 0 0 2 0 0 0 0 0 0 -5 0 0 0 0 0 0 0 0 0 0 0 0 0 0 0 0 0 -5 0 0 0 0 0 0 0 0 0 0 -2 0 -41 0 -7 0 0 0 0 0 0 0 0 0 0 0 -2 0 0 0 3 0 0 0 0 0 -1 0 0 0 0 0 0 0 0 0 0 0 0 0 0 0 0 0 0 0 2 0 0 0 0 0 0 0 0 0 0 0 0 0 0 0 0 0 0 0 0 0 0 0 -1 0 0 0 0 0 0 0 4 0 0 0 0 0 0 0 0 0 0 0 0 0 0 0 0 0 0 0 0 0 0 0 0 0 0 0 8 0 0 0 0 0 0 -48 -5 0 0 -8 -2 0 3 0 0 0 0 0 0 0 0 -1 0 0 0 0 0 0 -2 0 0 3 0 0 0 0 0 -2 0 6 0 0 0 0 0 0 0 10 0 9 -5 0 0 0 0 0 0 0 0 -2 0 0 5 0 0 0 0 5 0 0 0 0 7 0 0 0 0 2 -3 0 0 0 0 0 -2 0 0 0 0 0 0 0 0 0 0 0 0 0 0 0 1 0 0 0 0 0 -4 0 0 0 0 0 0 0 0 0 0 0 0 0 0 0 3 -11 0 0 0 0 0 0 0 0 0 0 0 0 0 0 0 0 0 0 0 0 0 0 0 0 0 0 0 0 0 0 0 0 0 0 0 0 0 0 0 0 
-12 -20 0 0 0 -12 0 0 0 -20 0 0 0 0 0 0 0 0 -12 0 0 0 0 0 0 0 19 -12 0 0 0 0 -20 0 -22 0 0 0 19 -24 0 0 19 0 0 0 0 0 0 0 0 0 0 0 0 2 0 1 0 0 0 0 0 0 0 0 0 0 0 0 0 0 0 0 0 2 0 0 0 0 0 0 0 0 0 0 0 0 0 0 0 0 0 0 0 0 0 0 0 1 0 0 0 0 0 0 0 0 -9 0 0 0 0 -12 0 0 0 0 0 0 0 0 0 0 0 0 0 0 0 0 0 0 0 0 1 0 0 0 0 21 -11 0 0 0 2 0 0 0 0 0 0 0 0 0 0 0 0 0 0 0 -9 0 0 0 0 0 0 0 0 0 0 0 0 0 0 0 2 0 0 0 2 0 0 0 0 0 0 0 0 0 0 0 -11 0 0 0 12 0 0 0 0 0 0 0 0 0 0 0 0 0 0 0 0 0 0 0 0 0 0 0 -2 0 0 0 0 0 0 0 0 0 0 0 0 0 0 0 0 0 0 0 0 0 -12 0 0 0 0 0 0 0 0 0 0 0 0 0 0 0 0 0 0 0 0 0 0 0 0 0 0 0 0 0 0 0 0 0 0 0 8 0 0 0 0 0 0 0 0 0 0 0 0 0 0 0 0 0 0 0 0 0 0 0 0 0 0 0 0 0 0 0 0 0 0 0 0 0 0 0 0 0 0 0 0 0 0 0 0 0 0 0 0 0 0 0 -8 0 0 0 0 0 0 0 0 0 0 0 0 0 0 0 0 0 0 0 0 0 0 0 0 0 0 0 0 0 0 0 0 0 0 0 0 0 0 0 0 0 0 0 0 0 0 0 0 0 0 0 0 0 0 0 0 0 0 0 0 0 0 0 0 0 0 0 0 0 0 0 0 0 0 0 0 0 0 0 0 0 0 0 0 0 0 0 0 0 0 0 0 0 0 0 0 0 0 -20 0 0 0 0 0 0 0 17 0 0 0 0 0 0 0 0 0 0 21 0 0 0 -2 0 0 0 0 11 0 -12 0 0 0 0 0 2 0 8 0 0 0 12 0 0 0 0 0 0 0 0 0 0 0 0 0 0 0 0 0 0 0 0 0 0 0 0 0 0 0 0 8 0 0 0 0 0 0 0 0 0 0 0 0 0 0 0 0 0 0 0 0 0 0 0 0 0 0 0 0 0 0 0 0 0 0 0 0 0 0 0 0 0 0 0 0 0 0 0 0 0 0 0 0 0 0 0 0 0 0 0 0 0 0 0 0 0 0 0 0 0 0 0 0 0 0 0 0 0 0 0 0 0 0 0 0 0 0 0 
-58 -8 -4 -70 0 -3 0 -5 -9 8 0 0 0 0 17 -52 0 0 0 -1 0 0 0 -8 0 -4 -17 0 0 0 0 0 8 0 8 0 0 0 -17 3 0 0 -17 0 -39 0 0 0 1 -3 0 0 0 -29 0 0 0 0 -2 7 -5 0 0 7 0 0 0 0 0 0 0 -24 0 0 5 0 -28 0 0 0 0 0 0 0 0 0 -4 0 0 0 0 0 0 0 0 0 0 2 0 0 0 0 0 0 0 0 0 0 0 0 0 -2 0 0 0 3 0 0 0 0 -4 0 0 0 0 0 0 0 4 0 0 0 -3 0 0 0 0 0 0 10 0 0 0 0 5 0 0 0 0 0 0 0 0 0 0 0 0 0 0 0 -9 0 0 0 0 0 0 0 0 0 0 0 0 3 0 0 0 0 0 0 5 0 0 0 0 0 0 0 0 0 0 0 0 0 0 0 -5 0 0 0 0 0 0 0 0 0 0 0 0 0 0 0 0 0 0 0 -5 0 3 0 -5 4 0 0 0 0 0 0 0 0 0 -7 0 0 0 0 0 0 0 0 0 0 -1 0 -28 1 0 0 0 -4 0 0 -28 0 0 0 0 0 0 0 0 0 -7 0 0 0 0 0 0 0 0 0 0 0 0 0 0 0 0 0 3 0 3 0 0 0 0 0 0 0 0 0 0 0 0 0 0 0 0 0 0 0 0 0 0 0 3 0 0 0 0 0 0 0 0 0 0 0 0 0 0 0 0 0 0 0 0 0 0 0 0 0 0 0 -3 0 0 0 0 0 0 0 0 0 0 0 0 -3 0 0 0 0 0 0 0 0 0 0 0 0 0 0 -21 0 0 0 7 0 0 -1 -3 0 0 0 0 0 0 0 -67 0 0 0 0 0 0 0 0 0 0 39 0 0 -1 0 -3 0 0 0 0 0 0 0 0 0 0 0 0 0 5 0 0 0 3 0 0 0 0 0 0 0 -7 0 0 0 0 0 3 0 3 0 0 0 0 -28 -45 0 -3 -3 0 0 0 0 0 0 0 0 -4 0 0 0 0 0 10 0 -3 0 0 0 0 0 0 0 5 0 0 0 0 5 0 5 0 0 0 0 0 1 0 -2 1 0 -29 0 0 0 0 0 0 0 0 0 0 0 0 0 0 -7 7 0 0 0 0 0 0 3 0 0 0 0 3 21 0 0 -7 0 3 0 0 0 0 0 0 0 0 0 0 0 0 -39 0 0 0 1 3 0 0 0 0 0 0 -5 0 0 -3 0 0 0 0 0 0 0 -3 0 0 -3 0 0 0 0 0 0 0 0 0 0 0 0 0 0 0 0 0 0 0 0 0 0 0 0 0 0 0 0 0 0 0 0 0 0 0 0 0 0 
-6 0 0 -39 0 -6 0 0 2 0 0 0 0 0 4 0 0 0 0 0 0 0 0 0 0 0 0 0 0 0 0 0 0 0 0 0 0 0 0 0 0 -1 0 0 -39 0 0 0 0 0 0 -4 0 0 0 -4 0 0 0 0 0 0 0 0 0 0 0 0 0 0 0 0 0 0 0 0 0 0 0 0 0 0 0 0 0 0 4 0 0 2 0 0 0 0 0 1 0 0 0 0 0 0 0 0 0 0 0 0 0 0 0 0 0 0 0 3 0 0 0 0 0 0 0 0 0 0 0 0 -4 0 0 -1 0 0 0 0 0 0 0 0 4 4 0 0 0 0 0 0 0 0 0 0 0 0 0 0 0 0 0 0 0 0 0 0 0 0 0 0 0 0 0 0 0 0 0 0 0 0 0 0 0 0 0 0 0 0 0 0 1 0 0 2 0 0 0 0 1 0 0 0 0 0 0 0 4 0 0 0 0 0 0 0 0 0 0 0 0 0 3 0 0 0 0 0 0 0 0 0 -3 0 0 0 0 0 0 0 0 0 0 0 0 0 0 0 0 -4 0 0 0 0 0 0 0 -1 0 0 0 0 0 0 0 0 0 0 0 0 0 0 0 0 0 0 0 0 0 0 0 0 0 0 3 0 0 0 0 0 0 4 0 0 0 3 0 0 0 0 0 0 0 0 0 0 -1 0 0 0 0 0 0 0 0 0 0 0 0 0 0 0 0 0 0 0 0 0 0 0 0 0 0 0 0 0 0 0 0 0 0 0 0 0 -3 0 0 0 0 0 0 0 0 0 0 0 0 0 0 0 0 0 0 0 0 0 0 1 0 0 0 0 0 0 0 0 0 -1 0 0 3 0 -39 0 0 0 0 0 0 0 0 0 0 39 0 0 0 0 0 0 0 0 -4 0 0 0 0 0 0 0 0 0 0 0 0 0 0 0 0 0 0 0 0 0 0 0 0 1 0 0 0 0 0 0 0 0 0 0 3 0 0 -4 0 0 0 0 0 -5 5 0 4 0 0 0 0 0 0 0 -3 0 0 0 0 0 0 0 0 0 0 0 0 0 0 0 0 0 0 0 0 0 0 0 0 0 0 0 0 0 0 -3 0 0 0 -1 -3 0 0 0 0 0 0 0 0 0 0 0 0 0 0 0 3 0 0 0 0 0 0 0 0 0 1 0 0 -3 0 0 0 0 0 0 0 -39 0 0 0 0 0 0 4 0 0 0 0 0 0 0 0 0 0 0 0 -1 0 0 0 0 0 0 0 0 0 0 0 0 0 0 0 0 0 0 0 0 0 0 0 0 0 0 0 0 0 0 0 0 0 0 0 0 0 0 0 0 0 0 0 0 
0 0 -28 -19 -7 0 0 -21 0 0 0 0 0 0 0 0 0 -12 -5 -4 0 -12 0 0 -5 -4 0 0 -12 0 -4 0 -1 0 0 0 0 0 0 0 0 0 0 0 0 0 0 0 0 0 0 -17 -2 0 0 -17 0 0 0 0 0 0 1 0 0 0 0 0 -5 0 0 0 0 0 0 -1 0 0 0 0 0 0 0 0 0 -5 0 0 0 6 0 0 0 0 0 0 -2 0 0 0 0 0 0 0 0 0 0 0 0 0 0 0 0 0 0 0 0 0 0 1 0 0 -12 0 0 0 0 0 0 0 0 0 -7 0 0 0 0 0 0 0 0 0 0 0 0 0 0 0 0 0 0 0 0 0 0 0 0 0 0 0 0 0 0 0 0 0 1 0 0 0 0 0 0 0 0 0 -1 0 0 0 0 0 0 0 0 0 0 0 0 0 0 6 0 0 0 0 12 0 0 0 0 0 0 0 0 0 0 0 0 0 -5 0 -1 0 0 0 0 0 0 0 0 0 0 -12 0 0 0 -4 0 0 0 0 0 0 0 0 0 0 0 0 0 -4 0 0 0 0 0 0 0 0 0 0 0 0 0 0 0 0 0 0 0 0 0 0 0 0 0 0 0 0 0 0 0 0 0 0 0 0 0 0 0 0 0 -6 0 0 0 0 0 0 0 0 0 0 0 0 0 0 0 0 0 0 0 0 0 0 0 0 0 0 0 0 0 0 0 0 0 0 0 0 0 0 0 0 0 0 0 0 0 0 0 0 0 0 0 0 0 0 0 0 0 0 0 0 0 0 0 0 0 0 0 0 0 0 0 0 0 0 0 0 0 0 0 0 0 0 0 0 0 0 0 0 0 0 0 0 0 0 0 0 0 0 0 0 0 0 0 0 0 0 0 0 0 0 0 0 0 0 0 0 0 0 0 0 0 0 0 0 -5 0 0 0 0 0 0 0 0 0 0 0 0 0 0 0 -1 0 0 0 0 0 0 0 0 0 0 0 0 0 0 0 0 14 0 0 0 0 0 7 0 0 0 0 0 -1 0 0 0 0 0 0 0 0 -12 0 0 0 0 0 0 0 -2 14 0 0 0 0 0 0 0 0 -5 0 0 0 0 0 6 0 0 0 0 0 0 0 0 5 -5 0 0 0 0 0 0 0 0 0 0 0 0 0 0 0 0 0 0 0 0 0 0 0 0 0 0 0 0 0 0 0 0 0 0 0 0 0 0 0 0 0 0 5 0 0 0 0 0 0 0 0 0 1 0 0 0 0 0 0 0 0 0 0 0 0 0 0 0 0 0 0 0 0 0 0 0 0 0 0 0 0 0 0 0 0 0 0 0 0 0 0 0 0 0 0 
-79 -25 -11 0 -9 -13 0 -5 -20 -52 -70 0 0 3 17 -30 -5 0 -6 0 -4 -3 0 3 0 0 15 -6 0 0 -14 0 42 0 31 0 0 0 32 24 0 0 32 7 0 0 -47 0 0 -3 0 -2 0 7 0 0 3 10 0 0 -5 0 0 0 0 0 -2 -30 0 0 0 -39 0 0 6 2 0 0 0 0 -3 0 -4 0 0 3 0 0 0 0 1 0 0 0 0 12 3 2 -2 10 0 -2 0 0 0 0 -8 -3 9 1 0 0 0 0 0 -9 0 0 0 2 -4 -23 -3 0 0 0 0 0 0 -18 0 -6 0 0 0 0 0 0 0 0 -33 -9 0 1 7 -7 0 -1 0 0 0 0 0 0 0 5 0 0 -1 7 0 0 0 0 0 0 2 9 0 0 2 1 0 0 0 0 2 0 0 0 7 0 0 2 0 0 0 -36 0 0 0 0 -37 0 0 0 0 0 0 -1 0 0 0 -3 4 0 0 0 0 0 5 0 0 0 0 0 0 0 0 0 -7 0 0 -3 0 0 0 16 0 0 -1 0 0 0 0 -1 0 0 5 0 5 16 0 0 0 0 -11 0 8 -4 0 0 0 9 -6 0 0 0 0 0 0 9 0 5 0 0 0 0 0 0 0 0 0 0 0 0 0 0 12 0 0 0 0 0 -3 1 0 4 0 -70 0 0 0 0 0 0 -5 -30 9 0 0 0 -1 0 0 -4 0 0 0 0 0 0 0 -7 0 0 -4 0 5 0 0 0 0 0 0 0 0 23 0 0 0 0 0 0 -12 0 0 0 0 0 0 0 0 0 0 -1 0 0 0 0 0 0 0 0 0 0 0 -7 0 0 0 0 -7 0 0 0 0 0 -5 0 0 0 0 -1 0 0 8 0 0 0 1 0 0 8 0 0 0 -4 -1 0 0 0 0 0 0 0 0 0 0 0 0 0 0 0 0 0 0 0 5 -1 0 0 0 0 0 0 0 0 0 0 0 0 -1 0 0 0 19 0 0 -7 0 0 0 -48 -23 0 -1 -2 6 0 3 3 0 0 0 0 0 0 0 7 -5 -7 0 -2 0 0 -2 0 0 -2 0 -39 0 0 0 0 0 0 0 7 3 12 0 1 0 0 0 0 0 11 9 0 6 0 0 -13 0 3 0 4 0 30 -9 0 0 0 0 0 -3 0 0 -23 0 5 7 0 0 1 0 7 0 0 0 5 0 0 0 0 0 -8 -1 0 -7 -1 0 4 0 0 0 0 0 0 0 0 0 0 0 0 0 -7 2 1 0 0 2 -1 0 -4 4 0 -35 47 -31 0 7 0 0 0 0 0 0 0 0 0 0 0 0 0 0 0 0 0 0 0 0 0 0 0 0 0 0 0 0 0 0 0 0 0 0 0 0 0 
#OUTPUT END
Model has been successfully processed
